Route #1: 1 6 54 106 1 
Route #2: 1 110 67 66 1 
Route #3: 1 135 163 117 1 
Route #4: 1 208 177 127 1 
Route #5: 1 124 107 77 1 
Route #6: 1 193 131 207 1 
Route #7: 1 27 108 167 1 
Route #8: 1 64 149 204 1 
Route #9: 1 16 138 4 1 
Route #10: 1 115 84 160 1 
Route #11: 1 109 45 119 1 
Route #12: 1 141 123 26 1 
Route #13: 1 75 113 60 1 
Route #14: 1 164 62 139 1 
Route #15: 1 81 170 46 1 
Route #16: 1 214 86 98 1 
Route #17: 1 202 82 196 1 
Route #18: 1 114 194 120 1 
Route #19: 1 121 101 105 1 
Route #20: 1 35 24 44 1 
Route #21: 1 206 17 111 1 
Route #22: 1 79 140 151 1 
Route #23: 1 1 32 181 1 
Route #24: 1 87 173 83 1 
Route #25: 1 157 210 91 1 
Route #26: 1 90 201 179 1 
Route #27: 1 97 122 10 1 
Route #28: 1 192 47 198 1 
Route #29: 1 176 9 112 1 
Route #30: 1 49 63 21 1 
Route #31: 1 188 99 25 1 
Route #32: 1 132 89 129 1 
Route #33: 1 197 143 199 1 
Route #34: 1 162 211 168 1 
Route #35: 1 189 36 71 1 
Route #36: 1 39 178 18 1 
Route #37: 1 51 78 134 1 
Route #38: 1 103 187 174 1 
Route #39: 1 147 183 146 1 
Route #40: 1 95 30 116 1 
Route #41: 1 125 155 56 1 
Route #42: 1 5 180 191 1 
Route #43: 1 215 213 126 1 
Route #44: 1 8 19 80 1 
Route #45: 1 59 218 76 1 
Route #46: 1 216 94 184 1 
Route #47: 1 85 48 130 1 
Route #48: 1 158 161 156 1 
Route #49: 1 92 171 43 1 
Route #50: 1 203 33 2 1 
Route #51: 1 55 68 73 1 
Route #52: 1 52 185 88 1 
Route #53: 1 7 144 133 1 
Route #54: 1 13 74 70 1 
Route #55: 1 50 195 14 1 
Route #56: 1 142 118 154 1 
Route #57: 1 34 205 190 1 
Route #58: 1 42 28 29 1 
Route #59: 1 166 93 3 1 
Route #60: 1 61 53 37 1 
Route #61: 1 145 182 11 1 
Route #62: 1 169 23 104 1 
Route #63: 1 209 41 20 1 
Route #64: 1 58 72 22 1 
Route #65: 1 137 40 212 1 
Route #66: 1 186 100 200 1 
Route #67: 1 57 175 102 1 
Route #68: 1 12 159 150 1 
Route #69: 1 148 65 15 1 
Route #70: 1 69 136 38 1 
Route #71: 1 217 152 96 1 
Route #72: 1 128 31 153 1 
Route #73: 1 172 165 1 

Cost 121298
Time 11.4934


 * Another infos *

 Iterations: 219 Time: 11.4934 sec - 0.1916 min - 0.0032 horas
0.0000 h 0.1916 min
Problem dimension: 219
